data/lp_files/pEFS/63_4.lp
\ Model foo
\ LP format - for model browsing. Use MPS format to capture full model detail.
Minimize
  z
Subject To
 allocateEach[1]: x[1,1] + x[2,1] + x[3,1] + x[4,1] = 1
 allocateEach[2]: x[1,2] + x[2,2] + x[3,2] + x[4,2] = 1
 allocateEach[3]: x[1,3] + x[2,3] + x[3,3] + x[4,3] = 1
 allocateAllCash: cashProportion[1] + cashProportion[2] + cashProportion[3]
   + cashProportion[4] = 1
 findWorstP[1,2]: z + 0.2004811547714515 cashProportion[1]
   - 0.2004811547714515 cashProportion[2] + 0.1141138732959102 x[1,1]
   + 0.139775461106656 x[1,2] + 0.5456295108259824 x[1,3]
   - 0.1141138732959102 x[2,1] - 0.139775461106656 x[2,2]
   - 0.5456295108259824 x[2,3] >= 0
 findWorstP[1,3]: z + 0.2004811547714515 cashProportion[1]
   - 0.2004811547714515 cashProportion[3] + 0.1141138732959102 x[1,1]
   + 0.139775461106656 x[1,2] + 0.5456295108259824 x[1,3]
   - 0.1141138732959102 x[3,1] - 0.139775461106656 x[3,2]
   - 0.5456295108259824 x[3,3] >= 0
 findWorstP[1,4]: z + 0.2004811547714515 cashProportion[1]
   - 0.2004811547714515 cashProportion[4] + 0.1141138732959102 x[1,1]
   + 0.139775461106656 x[1,2] + 0.5456295108259824 x[1,3]
   - 0.1141138732959102 x[4,1] - 0.139775461106656 x[4,2]
   - 0.5456295108259824 x[4,3] >= 0
 findWorstP[2,1]: z - 0.1922189758572966 cashProportion[1]
   + 0.1922189758572966 cashProportion[2] - 0.209826234045825 x[1,1]
   - 0.2283561433184684 x[1,2] - 0.36959864677841 x[1,3]
   + 0.209826234045825 x[2,1] + 0.2283561433184684 x[2,2]
   + 0.36959864677841 x[2,3] >= 0
 findWorstP[2,3]: z + 0.1922189758572966 cashProportion[2]
   - 0.1922189758572966 cashProportion[3] + 0.209826234045825 x[2,1]
   + 0.2283561433184684 x[2,2] + 0.36959864677841 x[2,3]
   - 0.209826234045825 x[3,1] - 0.2283561433184684 x[3,2]
   - 0.36959864677841 x[3,3] >= 0
 findWorstP[2,4]: z + 0.1922189758572966 cashProportion[2]
   - 0.1922189758572966 cashProportion[4] + 0.209826234045825 x[2,1]
   + 0.2283561433184684 x[2,2] + 0.36959864677841 x[2,3]
   - 0.209826234045825 x[4,1] - 0.2283561433184684 x[4,2]
   - 0.36959864677841 x[4,3] >= 0
 findWorstP[3,1]: z - 0.141643059490085 cashProportion[1]
   + 0.141643059490085 cashProportion[3] - 0.5613597733711049 x[1,1]
   - 0.191614730878187 x[1,2] - 0.1053824362606232 x[1,3]
   + 0.5613597733711049 x[3,1] + 0.191614730878187 x[3,2]
   + 0.1053824362606232 x[3,3] >= 0
 findWorstP[3,2]: z - 0.141643059490085 cashProportion[2]
   + 0.141643059490085 cashProportion[3] - 0.5613597733711049 x[2,1]
   - 0.191614730878187 x[2,2] - 0.1053824362606232 x[2,3]
   + 0.5613597733711049 x[3,1] + 0.191614730878187 x[3,2]
   + 0.1053824362606232 x[3,3] >= 0
 findWorstP[3,4]: z + 0.141643059490085 cashProportion[3]
   - 0.141643059490085 cashProportion[4] + 0.5613597733711049 x[3,1]
   + 0.191614730878187 x[3,2] + 0.1053824362606232 x[3,3]
   - 0.5613597733711049 x[4,1] - 0.191614730878187 x[4,2]
   - 0.1053824362606232 x[4,3] >= 0
 findWorstP[4,1]: z - 0.1757592800899888 cashProportion[1]
   + 0.1757592800899888 cashProportion[4] - 0.1672525309336333 x[1,1]
   - 0.3406214848143982 x[1,2] - 0.3163667041619798 x[1,3]
   + 0.1672525309336333 x[4,1] + 0.3406214848143982 x[4,2]
   + 0.3163667041619798 x[4,3] >= 0
 findWorstP[4,2]: z - 0.1757592800899888 cashProportion[2]
   + 0.1757592800899888 cashProportion[4] - 0.1672525309336333 x[2,1]
   - 0.3406214848143982 x[2,2] - 0.3163667041619798 x[2,3]
   + 0.1672525309336333 x[4,1] + 0.3406214848143982 x[4,2]
   + 0.3163667041619798 x[4,3] >= 0
 findWorstP[4,3]: z - 0.1757592800899888 cashProportion[3]
   + 0.1757592800899888 cashProportion[4] - 0.1672525309336333 x[3,1]
   - 0.3406214848143982 x[3,2] - 0.3163667041619798 x[3,3]
   + 0.1672525309336333 x[4,1] + 0.3406214848143982 x[4,2]
   + 0.3163667041619798 x[4,3] >= 0
Bounds
 z <= 1
 -infinity <= cashProportion[1] <= 1
 -infinity <= cashProportion[2] <= 1
 -infinity <= cashProportion[3] <= 1
 -infinity <= cashProportion[4] <= 1
Binaries
 x[1,1] x[1,2] x[1,3] x[2,1] x[2,2] x[2,3] x[3,1] x[3,2] x[3,3] x[4,1]
 x[4,2] x[4,3]
End
